Maximize
  - 2.553856216049 edge_0_1_0_0 - 3.0244450151735 edge_0_2_0_0
   - 2.3517413149527 edge_0_3_0_0 - 2.2117437977868 edge_0_4_0_0
   - 2.946483147069 edge_0_6_0_0 - 2.6623522473788 edge_0_7_0_0
   - 1.2904823191032 edge_0_9_0_0 - 1.6780359762005 edge_0_11_0_0
   - 3.531349576238 edge_0_13_0_0 - 3.062619477484799 edge_0_14_0_0
   - 3.4620940793508 edge_0_24_0_0 + 0.2044009307716332 edge_1_2_0_0
   - 0.3007677459856473 edge_1_3_0_0 - 0.6234218643986289 edge_1_4_0_0
   - 0.5056985165882233 edge_1_6_0_0 - 0.1187396800222825 edge_1_7_0_0
   - 0.1618616300358454 edge_1_9_0_0 - 0.2198071581691151 edge_1_11_0_0
   + 2.270253785761029 edge_2_1_0_0 + 1.21756072207137 edge_2_3_0_0
   - 0.1929855311063165 edge_2_4_0_0 - 0.0678875746704615 edge_2_6_0_0
   + 0.5543485012645416 edge_2_7_0_0 + 0.6642801224017637 edge_2_9_0_0
   + 0.6115128952110196 edge_2_11_0_0 + 0.0043615483853978 edge_2_12_0_0
   + 0.1229364721875816 edge_2_13_0_0 - 0.0428659265042001 edge_2_14_0_0
   + 0.0906532031548194 edge_2_17_0_0 + 0.1639113571211889 edge_2_22_0_0
   + 0.8793928770306774 edge_2_23_0_0 - 0.6913620398948261 edge_2_24_0_0
   - 0.00692803673192381 edge_2_25_0_0 - 0.0242662894335646 edge_3_9_0_0
   - 0.00864026347656526 edge_4_1_0_0 - 0.0220251106792355 edge_4_2_0_0
   + 0.2603325719441109 edge_4_3_0_0 + 0.1391944738570576 edge_4_6_0_0
   + 0.3829565904404509 edge_4_7_0_0 - 0.0951580751061391 edge_4_9_0_0
   - 0.0262665078196631 edge_4_11_0_0 - 0.1107935538598891 edge_4_12_0_0
   - 0.1953701138019436 edge_4_13_0_0 - 0.1274783314598812 edge_4_14_0_0
   - 0.2162022014698959 edge_4_17_0_0 - 0.4328598054595823 edge_4_24_0_0
   + 0.1509738832006281 edge_4_25_0_0 + 0.1788665784690759 edge_6_1_0_0
   + 0.442470956851702 edge_6_2_0_0 + 0.237068734725507 edge_6_3_0_0
   + 0.8800105357711422 edge_6_4_0_0 + 0.8957166987913591 edge_6_7_0_0
   + 0.0523391912471276 edge_6_9_0_0 + 0.0938111500467585 edge_6_11_0_0
   - 0.1465406110744557 edge_6_12_0_0 + 0.0336508404953587 edge_6_13_0_0
   - 0.5801597994519572 edge_7_1_0_0 - 0.3153585843041213 edge_7_2_0_0
   - 0.3521297426167052 edge_7_3_0_0 - 0.4885264488924297 edge_7_4_0_0
   - 0.1886442834556148 edge_7_6_0_0 + 0.3079647964609936 edge_9_1_0_0
   + 0.0755319208712257 edge_9_2_0_0 + 0.2751577137851314 edge_9_3_0_0
   - 0.2732340524364006 edge_9_4_0_0 - 0.2762289217911878 edge_9_6_0_0
   + 0.0891901520244533 edge_9_7_0_0 + 0.7421128155804819 edge_9_11_0_0
   + 0.1045665224977684 edge_9_12_0_0 + 0.3840224181618643 edge_9_13_0_0
   + 0.1669174803619673 edge_9_14_0_0 + 0.2847462068715012 edge_9_17_0_0
   - 0.0588388515656429 edge_9_19_0_0 - 0.108871192862591 edge_9_20_0_0
   - 0.3708895234982268 edge_9_22_0_0 + 0.1178266711967437 edge_9_23_0_0
   - 0.2212275314482833 edge_9_24_0_0 + 0.0967183799733767 edge_9_25_0_0
   + 0.0889219437410232 edge_11_1_0_0 - 0.0905042113328281 edge_11_2_0_0
   + 0.0702832313706007 edge_11_3_0_0 - 0.5455000177518385 edge_11_4_0_0
   - 0.5924166147860265 edge_11_6_0_0 + 0.1054471051770919 edge_11_7_0_0
   + 0.0900773494872304 edge_11_9_0_0 + 0.3984823131372622 edge_11_12_0_0
   + 0.9946155592971184 edge_11_13_0_0 + 0.8945463209443139 edge_11_14_0_0
   + 0.3189287820845894 edge_11_17_0_0 - 0.2736578587399229 edge_11_18_0_0
   + 0.1461594082935897 edge_11_19_0_0 + 0.0426300811324596 edge_11_20_0_0
   + 0.234678510472052 edge_11_22_0_0 + 0.6786260914678925 edge_11_23_0_0
   + 0.1118358794408611 edge_11_24_0_0 + 0.3744286965938322 edge_11_25_0_0
   - 0.1849711066840312 edge_12_3_0_0 - 0.8383133853927732 edge_12_4_0_0
   - 1.004922645305889 edge_12_6_0_0 - 0.3453723015174547 edge_12_7_0_0
   - 0.2158396356506501 edge_12_11_0_0 + 0.6329486391576542 edge_12_13_0_0
   + 0.027523783044591 edge_12_14_0_0 - 0.2801579993664468 edge_12_17_0_0
   - 0.8444268445637857 edge_12_18_0_0 - 0.9885124391364749 edge_12_20_0_0
   - 0.3403516483502312 edge_12_23_0_0 - 0.1884715867099469 edge_13_1_0_0
   - 0.3454826219174104 edge_13_2_0_0 - 0.5361201864229799 edge_13_3_0_0
   - 0.8380083312397882 edge_13_4_0_0 - 1.296908101169009 edge_13_6_0_0
   - 0.19778497640396 edge_13_7_0_0 - 0.0156563434049506 edge_13_9_0_0
   - 0.0135257664281928 edge_13_11_0_0 + 2.891413783447704 edge_13_12_0_0
   + 3.052135343127715 edge_13_14_0_0 + 0.2481309912590375 edge_13_17_0_0
   - 0.5424207106809468 edge_13_18_0_0 - 0.0727310883867483 edge_13_19_0_0
   - 0.1972766902275943 edge_13_20_0_0 + 0.421516299719678 edge_13_22_0_0
   + 0.9438151281110708 edge_13_23_0_0 - 0.0782446703652084 edge_13_24_0_0
   + 0.1627354715197411 edge_13_25_0_0 - 0.6356350435060604 edge_14_1_0_0
   - 0.0891818754108935 edge_14_9_0_0 - 0.2152748665821136 edge_14_11_0_0
   + 0.9117032015409838 edge_14_12_0_0 + 0.9719131459171284 edge_14_13_0_0
   - 0.0482475152804021 edge_14_17_0_0 - 0.480826885869552 edge_14_18_0_0
   - 0.12786476454273 edge_14_19_0_0 - 0.2404772664593579 edge_14_20_0_0
   + 0.8646641141028419 edge_14_22_0_0 + 1.289987709980811 edge_14_23_0_0
   + 0.0418709677106917 edge_14_24_0_0 + 0.02189948177281 edge_14_25_0_0
   - 1.041942622373607 edge_17_14_0_0 - 0.6941540899201815 edge_17_18_0_0
   - 0.602426974466452 edge_17_19_0_0 - 0.4363461539810856 edge_18_17_0_0
   - 0.121523997748289 edge_18_19_0_0 - 0.3760641463417904 edge_18_20_0_0
   - 0.2927583786877146 edge_18_22_0_0 - 0.0228513810165432 edge_18_23_0_0
   - 0.2756868597309873 edge_18_24_0_0 - 0.473714837467343 edge_18_25_0_0
   - 0.0534895506411501 edge_19_18_0_0 + 0.2258569627384048 edge_19_20_0_0
   - 0.0336421405715561 edge_19_24_0_0 - 0.1616885552197061 edge_20_17_0_0
   + 0.1630141195770368 edge_20_18_0_0 + 0.3841576096140735 edge_20_19_0_0
   - 0.1548974184608427 edge_20_22_0_0 - 0.1739409414697961 edge_20_23_0_0
   - 0.3112914354408813 edge_20_25_0_0 - 0.5863394902959862 edge_22_18_0_0
   + 0.0155647417542121 edge_22_19_0_0 + 0.2357932776214686 edge_22_20_0_0
   + 0.4148445690503875 edge_22_23_0_0 - 0.0664834709650853 edge_22_25_0_0
   - 0.517518996226644 edge_23_19_0_0 - 0.2967321907609839 edge_23_20_0_0
   - 0.0876786167148992 edge_23_22_0_0 - 0.5028910202573361 edge_23_24_0_0
   - 0.8915538973991287 edge_24_2_0_0 - 0.2344270055207942 edge_24_9_0_0
   - 0.446663065374497 edge_24_11_0_0 - 0.9234700353248427 edge_24_12_0_0
   - 0.2843580886915052 edge_24_13_0_0 - 0.2644706664085266 edge_24_14_0_0
   + 0.0295581747354883 edge_24_17_0_0 + 0.6942030573418717 edge_24_18_0_0
   + 0.9254910593730896 edge_24_19_0_0 + 2.416975122865924 edge_24_20_0_0
   + 2.418430043991695 edge_24_22_0_0 + 1.84790522375026 edge_24_23_0_0
   + 0.7736052918470797 edge_24_25_0_0 - 1.040161153336023 edge_25_22_0_0
Subject To
 one_parent_1: edge_0_1_0_0 + edge_2_1_0_0 + edge_4_1_0_0 + edge_6_1_0_0
   + edge_7_1_0_0 + edge_9_1_0_0 + edge_11_1_0_0 + edge_13_1_0_0
   + edge_14_1_0_0 = 1
 consume_one_flow_unit_1: flow_0_1_0_0 - flow_1_2_0_0 - flow_1_3_0_0
   - flow_1_4_0_0 - flow_1_6_0_0 - flow_1_7_0_0 - flow_1_9_0_0
   - flow_1_11_0_0 + flow_2_1_0_0 + flow_4_1_0_0 + flow_6_1_0_0
   + flow_7_1_0_0 + flow_9_1_0_0 + flow_11_1_0_0 + flow_13_1_0_0
   + flow_14_1_0_0 = 1
 one_parent_2: edge_0_2_0_0 + edge_1_2_0_0 + edge_4_2_0_0 + edge_6_2_0_0
   + edge_7_2_0_0 + edge_9_2_0_0 + edge_11_2_0_0 + edge_13_2_0_0
   + edge_24_2_0_0 = 1
 consume_one_flow_unit_2: flow_0_2_0_0 + flow_1_2_0_0 - flow_2_1_0_0
   - flow_2_3_0_0 - flow_2_4_0_0 - flow_2_6_0_0 - flow_2_7_0_0
   - flow_2_9_0_0 - flow_2_11_0_0 - flow_2_12_0_0 - flow_2_13_0_0
   - flow_2_14_0_0 - flow_2_17_0_0 - flow_2_22_0_0 - flow_2_23_0_0
   - flow_2_24_0_0 - flow_2_25_0_0 + flow_4_2_0_0 + flow_6_2_0_0
   + flow_7_2_0_0 + flow_9_2_0_0 + flow_11_2_0_0 + flow_13_2_0_0
   + flow_24_2_0_0 = 1
 one_parent_3: edge_0_3_0_0 + edge_1_3_0_0 + edge_2_3_0_0 + edge_4_3_0_0
   + edge_6_3_0_0 + edge_7_3_0_0 + edge_9_3_0_0 + edge_11_3_0_0
   + edge_12_3_0_0 + edge_13_3_0_0 = 1
 consume_one_flow_unit_3: flow_0_3_0_0 + flow_1_3_0_0 + flow_2_3_0_0
   - flow_3_9_0_0 + flow_4_3_0_0 + flow_6_3_0_0 + flow_7_3_0_0
   + flow_9_3_0_0 + flow_11_3_0_0 + flow_12_3_0_0 + flow_13_3_0_0 = 1
 one_parent_4: edge_0_4_0_0 + edge_1_4_0_0 + edge_2_4_0_0 + edge_6_4_0_0
   + edge_7_4_0_0 + edge_9_4_0_0 + edge_11_4_0_0 + edge_12_4_0_0
   + edge_13_4_0_0 = 1
 consume_one_flow_unit_4: flow_0_4_0_0 + flow_1_4_0_0 + flow_2_4_0_0
   - flow_4_1_0_0 - flow_4_2_0_0 - flow_4_3_0_0 - flow_4_6_0_0
   - flow_4_7_0_0 - flow_4_9_0_0 - flow_4_11_0_0 - flow_4_12_0_0
   - flow_4_13_0_0 - flow_4_14_0_0 - flow_4_17_0_0 - flow_4_24_0_0
   - flow_4_25_0_0 + flow_6_4_0_0 + flow_7_4_0_0 + flow_9_4_0_0
   + flow_11_4_0_0 + flow_12_4_0_0 + flow_13_4_0_0 = 1
 one_parent_5: = 1
 consume_one_flow_unit_5: = 1
 one_parent_6: edge_0_6_0_0 + edge_1_6_0_0 + edge_2_6_0_0 + edge_4_6_0_0
   + edge_7_6_0_0 + edge_9_6_0_0 + edge_11_6_0_0 + edge_12_6_0_0
   + edge_13_6_0_0 = 1
 consume_one_flow_unit_6: flow_0_6_0_0 + flow_1_6_0_0 + flow_2_6_0_0
   + flow_4_6_0_0 - flow_6_1_0_0 - flow_6_2_0_0 - flow_6_3_0_0
   - flow_6_4_0_0 - flow_6_7_0_0 - flow_6_9_0_0 - flow_6_11_0_0
   - flow_6_12_0_0 - flow_6_13_0_0 + flow_7_6_0_0 + flow_9_6_0_0
   + flow_11_6_0_0 + flow_12_6_0_0 + flow_13_6_0_0 = 1
 one_parent_7: edge_0_7_0_0 + edge_1_7_0_0 + edge_2_7_0_0 + edge_4_7_0_0
   + edge_6_7_0_0 + edge_9_7_0_0 + edge_11_7_0_0 + edge_12_7_0_0
   + edge_13_7_0_0 = 1
 consume_one_flow_unit_7: flow_0_7_0_0 + flow_1_7_0_0 + flow_2_7_0_0
   + flow_4_7_0_0 + flow_6_7_0_0 - flow_7_1_0_0 - flow_7_2_0_0
   - flow_7_3_0_0 - flow_7_4_0_0 - flow_7_6_0_0 + flow_9_7_0_0
   + flow_11_7_0_0 + flow_12_7_0_0 + flow_13_7_0_0 = 1
 one_parent_8: = 1
 consume_one_flow_unit_8: = 1
 one_parent_9: edge_0_9_0_0 + edge_1_9_0_0 + edge_2_9_0_0 + edge_3_9_0_0
   + edge_4_9_0_0 + edge_6_9_0_0 + edge_11_9_0_0 + edge_13_9_0_0
   + edge_14_9_0_0 + edge_24_9_0_0 = 1
 consume_one_flow_unit_9: flow_0_9_0_0 + flow_1_9_0_0 + flow_2_9_0_0
   + flow_3_9_0_0 + flow_4_9_0_0 + flow_6_9_0_0 - flow_9_1_0_0
   - flow_9_2_0_0 - flow_9_3_0_0 - flow_9_4_0_0 - flow_9_6_0_0
   - flow_9_7_0_0 - flow_9_11_0_0 - flow_9_12_0_0 - flow_9_13_0_0
   - flow_9_14_0_0 - flow_9_17_0_0 - flow_9_19_0_0 - flow_9_20_0_0
   - flow_9_22_0_0 - flow_9_23_0_0 - flow_9_24_0_0 - flow_9_25_0_0
   + flow_11_9_0_0 + flow_13_9_0_0 + flow_14_9_0_0 + flow_24_9_0_0 = 1
 one_parent_10: = 1
 consume_one_flow_unit_10: = 1
 one_parent_11: edge_0_11_0_0 + edge_1_11_0_0 + edge_2_11_0_0
   + edge_4_11_0_0 + edge_6_11_0_0 + edge_9_11_0_0 + edge_12_11_0_0
   + edge_13_11_0_0 + edge_14_11_0_0 + edge_24_11_0_0 = 1
 consume_one_flow_unit_11: flow_0_11_0_0 + flow_1_11_0_0 + flow_2_11_0_0
   + flow_4_11_0_0 + flow_6_11_0_0 + flow_9_11_0_0 - flow_11_1_0_0
   - flow_11_2_0_0 - flow_11_3_0_0 - flow_11_4_0_0 - flow_11_6_0_0
   - flow_11_7_0_0 - flow_11_9_0_0 - flow_11_12_0_0 - flow_11_13_0_0
   - flow_11_14_0_0 - flow_11_17_0_0 - flow_11_18_0_0 - flow_11_19_0_0
   - flow_11_20_0_0 - flow_11_22_0_0 - flow_11_23_0_0 - flow_11_24_0_0
   - flow_11_25_0_0 + flow_12_11_0_0 + flow_13_11_0_0 + flow_14_11_0_0
   + flow_24_11_0_0 = 1
 one_parent_12: edge_2_12_0_0 + edge_4_12_0_0 + edge_6_12_0_0
   + edge_9_12_0_0 + edge_11_12_0_0 + edge_13_12_0_0 + edge_14_12_0_0
   + edge_24_12_0_0 = 1
 consume_one_flow_unit_12: flow_2_12_0_0 + flow_4_12_0_0 + flow_6_12_0_0
   + flow_9_12_0_0 + flow_11_12_0_0 - flow_12_3_0_0 - flow_12_4_0_0
   - flow_12_6_0_0 - flow_12_7_0_0 - flow_12_11_0_0 - flow_12_13_0_0
   - flow_12_14_0_0 - flow_12_17_0_0 - flow_12_18_0_0 - flow_12_20_0_0
   - flow_12_23_0_0 + flow_13_12_0_0 + flow_14_12_0_0 + flow_24_12_0_0 = 1
 one_parent_13: edge_0_13_0_0 + edge_2_13_0_0 + edge_4_13_0_0
   + edge_6_13_0_0 + edge_9_13_0_0 + edge_11_13_0_0 + edge_12_13_0_0
   + edge_14_13_0_0 + edge_24_13_0_0 = 1
 consume_one_flow_unit_13: flow_0_13_0_0 + flow_2_13_0_0 + flow_4_13_0_0
   + flow_6_13_0_0 + flow_9_13_0_0 + flow_11_13_0_0 + flow_12_13_0_0
   - flow_13_1_0_0 - flow_13_2_0_0 - flow_13_3_0_0 - flow_13_4_0_0
   - flow_13_6_0_0 - flow_13_7_0_0 - flow_13_9_0_0 - flow_13_11_0_0
   - flow_13_12_0_0 - flow_13_14_0_0 - flow_13_17_0_0 - flow_13_18_0_0
   - flow_13_19_0_0 - flow_13_20_0_0 - flow_13_22_0_0 - flow_13_23_0_0
   - flow_13_24_0_0 - flow_13_25_0_0 + flow_14_13_0_0 + flow_24_13_0_0 = 1
 one_parent_14: edge_0_14_0_0 + edge_2_14_0_0 + edge_4_14_0_0
   + edge_9_14_0_0 + edge_11_14_0_0 + edge_12_14_0_0 + edge_13_14_0_0
   + edge_17_14_0_0 + edge_24_14_0_0 = 1
 consume_one_flow_unit_14: flow_0_14_0_0 + flow_2_14_0_0 + flow_4_14_0_0
   + flow_9_14_0_0 + flow_11_14_0_0 + flow_12_14_0_0 + flow_13_14_0_0
   - flow_14_1_0_0 - flow_14_9_0_0 - flow_14_11_0_0 - flow_14_12_0_0
   - flow_14_13_0_0 - flow_14_17_0_0 - flow_14_18_0_0 - flow_14_19_0_0
   - flow_14_20_0_0 - flow_14_22_0_0 - flow_14_23_0_0 - flow_14_24_0_0
   - flow_14_25_0_0 + flow_17_14_0_0 + flow_24_14_0_0 = 1
 one_parent_15: = 1
 consume_one_flow_unit_15: = 1
 one_parent_16: = 1
 consume_one_flow_unit_16: = 1
 one_parent_17: edge_2_17_0_0 + edge_4_17_0_0 + edge_9_17_0_0
   + edge_11_17_0_0 + edge_12_17_0_0 + edge_13_17_0_0 + edge_14_17_0_0
   + edge_18_17_0_0 + edge_20_17_0_0 + edge_24_17_0_0 = 1
 consume_one_flow_unit_17: flow_2_17_0_0 + flow_4_17_0_0 + flow_9_17_0_0
   + flow_11_17_0_0 + flow_12_17_0_0 + flow_13_17_0_0 + flow_14_17_0_0
   - flow_17_14_0_0 - flow_17_18_0_0 - flow_17_19_0_0 + flow_18_17_0_0
   + flow_20_17_0_0 + flow_24_17_0_0 = 1
 one_parent_18: edge_11_18_0_0 + edge_12_18_0_0 + edge_13_18_0_0
   + edge_14_18_0_0 + edge_17_18_0_0 + edge_19_18_0_0 + edge_20_18_0_0
   + edge_22_18_0_0 + edge_24_18_0_0 = 1
 consume_one_flow_unit_18: flow_11_18_0_0 + flow_12_18_0_0 + flow_13_18_0_0
   + flow_14_18_0_0 + flow_17_18_0_0 - flow_18_17_0_0 - flow_18_19_0_0
   - flow_18_20_0_0 - flow_18_22_0_0 - flow_18_23_0_0 - flow_18_24_0_0
   - flow_18_25_0_0 + flow_19_18_0_0 + flow_20_18_0_0 + flow_22_18_0_0
   + flow_24_18_0_0 = 1
 one_parent_19: edge_9_19_0_0 + edge_11_19_0_0 + edge_13_19_0_0
   + edge_14_19_0_0 + edge_17_19_0_0 + edge_18_19_0_0 + edge_20_19_0_0
   + edge_22_19_0_0 + edge_23_19_0_0 + edge_24_19_0_0 = 1
 consume_one_flow_unit_19: flow_9_19_0_0 + flow_11_19_0_0 + flow_13_19_0_0
   + flow_14_19_0_0 + flow_17_19_0_0 + flow_18_19_0_0 - flow_19_18_0_0
   - flow_19_20_0_0 - flow_19_24_0_0 + flow_20_19_0_0 + flow_22_19_0_0
   + flow_23_19_0_0 + flow_24_19_0_0 = 1
 one_parent_20: edge_9_20_0_0 + edge_11_20_0_0 + edge_12_20_0_0
   + edge_13_20_0_0 + edge_14_20_0_0 + edge_18_20_0_0 + edge_19_20_0_0
   + edge_22_20_0_0 + edge_23_20_0_0 + edge_24_20_0_0 = 1
 consume_one_flow_unit_20: flow_9_20_0_0 + flow_11_20_0_0 + flow_12_20_0_0
   + flow_13_20_0_0 + flow_14_20_0_0 + flow_18_20_0_0 + flow_19_20_0_0
   - flow_20_17_0_0 - flow_20_18_0_0 - flow_20_19_0_0 - flow_20_22_0_0
   - flow_20_23_0_0 - flow_20_25_0_0 + flow_22_20_0_0 + flow_23_20_0_0
   + flow_24_20_0_0 = 1
 one_parent_21: = 1
 consume_one_flow_unit_21: = 1
 one_parent_22: edge_2_22_0_0 + edge_9_22_0_0 + edge_11_22_0_0
   + edge_13_22_0_0 + edge_14_22_0_0 + edge_18_22_0_0 + edge_20_22_0_0
   + edge_23_22_0_0 + edge_24_22_0_0 + edge_25_22_0_0 = 1
 consume_one_flow_unit_22: flow_2_22_0_0 + flow_9_22_0_0 + flow_11_22_0_0
   + flow_13_22_0_0 + flow_14_22_0_0 + flow_18_22_0_0 + flow_20_22_0_0
   - flow_22_18_0_0 - flow_22_19_0_0 - flow_22_20_0_0 - flow_22_23_0_0
   - flow_22_25_0_0 + flow_23_22_0_0 + flow_24_22_0_0 + flow_25_22_0_0 = 1
 one_parent_23: edge_2_23_0_0 + edge_9_23_0_0 + edge_11_23_0_0
   + edge_12_23_0_0 + edge_13_23_0_0 + edge_14_23_0_0 + edge_18_23_0_0
   + edge_20_23_0_0 + edge_22_23_0_0 + edge_24_23_0_0 = 1
 consume_one_flow_unit_23: flow_2_23_0_0 + flow_9_23_0_0 + flow_11_23_0_0
   + flow_12_23_0_0 + flow_13_23_0_0 + flow_14_23_0_0 + flow_18_23_0_0
   + flow_20_23_0_0 + flow_22_23_0_0 - flow_23_19_0_0 - flow_23_20_0_0
   - flow_23_22_0_0 - flow_23_24_0_0 + flow_24_23_0_0 = 1
 one_parent_24: edge_0_24_0_0 + edge_2_24_0_0 + edge_4_24_0_0
   + edge_9_24_0_0 + edge_11_24_0_0 + edge_13_24_0_0 + edge_14_24_0_0
   + edge_18_24_0_0 + edge_19_24_0_0 + edge_23_24_0_0 = 1
 consume_one_flow_unit_24: flow_0_24_0_0 + flow_2_24_0_0 + flow_4_24_0_0
   + flow_9_24_0_0 + flow_11_24_0_0 + flow_13_24_0_0 + flow_14_24_0_0
   + flow_18_24_0_0 + flow_19_24_0_0 + flow_23_24_0_0 - flow_24_2_0_0
   - flow_24_9_0_0 - flow_24_11_0_0 - flow_24_12_0_0 - flow_24_13_0_0
   - flow_24_14_0_0 - flow_24_17_0_0 - flow_24_18_0_0 - flow_24_19_0_0
   - flow_24_20_0_0 - flow_24_22_0_0 - flow_24_23_0_0 - flow_24_25_0_0 = 1
 one_parent_25: edge_2_25_0_0 + edge_4_25_0_0 + edge_9_25_0_0
   + edge_11_25_0_0 + edge_13_25_0_0 + edge_14_25_0_0 + edge_18_25_0_0
   + edge_20_25_0_0 + edge_22_25_0_0 + edge_24_25_0_0 = 1
 consume_one_flow_unit_25: flow_2_25_0_0 + flow_4_25_0_0 + flow_9_25_0_0
   + flow_11_25_0_0 + flow_13_25_0_0 + flow_14_25_0_0 + flow_18_25_0_0
   + flow_20_25_0_0 + flow_22_25_0_0 + flow_24_25_0_0 - flow_25_22_0_0 = 1
 root_flow: flow_0_1_0_0 + flow_0_2_0_0 + flow_0_3_0_0 + flow_0_4_0_0
   + flow_0_6_0_0 + flow_0_7_0_0 + flow_0_9_0_0 + flow_0_11_0_0
   + flow_0_13_0_0 + flow_0_14_0_0 + flow_0_24_0_0 = 25
 inactive_no_flow_0_1_0_0: flow_0_1_0_0 - 1000 edge_0_1_0_0 <= 0
 inactive_no_flow_0_2_0_0: flow_0_2_0_0 - 1000 edge_0_2_0_0 <= 0
 inactive_no_flow_0_3_0_0: flow_0_3_0_0 - 1000 edge_0_3_0_0 <= 0
 inactive_no_flow_0_4_0_0: flow_0_4_0_0 - 1000 edge_0_4_0_0 <= 0
 inactive_no_flow_0_6_0_0: flow_0_6_0_0 - 1000 edge_0_6_0_0 <= 0
 inactive_no_flow_0_7_0_0: flow_0_7_0_0 - 1000 edge_0_7_0_0 <= 0
 inactive_no_flow_0_9_0_0: flow_0_9_0_0 - 1000 edge_0_9_0_0 <= 0
 inactive_no_flow_0_11_0_0: flow_0_11_0_0 - 1000 edge_0_11_0_0 <= 0
 inactive_no_flow_0_13_0_0: flow_0_13_0_0 - 1000 edge_0_13_0_0 <= 0
 inactive_no_flow_0_14_0_0: flow_0_14_0_0 - 1000 edge_0_14_0_0 <= 0
 inactive_no_flow_0_24_0_0: flow_0_24_0_0 - 1000 edge_0_24_0_0 <= 0
 inactive_no_flow_1_2_0_0: flow_1_2_0_0 - 1000 edge_1_2_0_0 <= 0
 inactive_no_flow_1_3_0_0: flow_1_3_0_0 - 1000 edge_1_3_0_0 <= 0
 inactive_no_flow_1_4_0_0: flow_1_4_0_0 - 1000 edge_1_4_0_0 <= 0
 inactive_no_flow_1_6_0_0: flow_1_6_0_0 - 1000 edge_1_6_0_0 <= 0
 inactive_no_flow_1_7_0_0: flow_1_7_0_0 - 1000 edge_1_7_0_0 <= 0
 inactive_no_flow_1_9_0_0: flow_1_9_0_0 - 1000 edge_1_9_0_0 <= 0
 inactive_no_flow_1_11_0_0: flow_1_11_0_0 - 1000 edge_1_11_0_0 <= 0
 inactive_no_flow_2_1_0_0: flow_2_1_0_0 - 1000 edge_2_1_0_0 <= 0
 inactive_no_flow_2_3_0_0: flow_2_3_0_0 - 1000 edge_2_3_0_0 <= 0
 inactive_no_flow_2_4_0_0: flow_2_4_0_0 - 1000 edge_2_4_0_0 <= 0
 inactive_no_flow_2_6_0_0: flow_2_6_0_0 - 1000 edge_2_6_0_0 <= 0
 inactive_no_flow_2_7_0_0: flow_2_7_0_0 - 1000 edge_2_7_0_0 <= 0
 inactive_no_flow_2_9_0_0: flow_2_9_0_0 - 1000 edge_2_9_0_0 <= 0
 inactive_no_flow_2_11_0_0: flow_2_11_0_0 - 1000 edge_2_11_0_0 <= 0
 inactive_no_flow_2_12_0_0: flow_2_12_0_0 - 1000 edge_2_12_0_0 <= 0
 inactive_no_flow_2_13_0_0: flow_2_13_0_0 - 1000 edge_2_13_0_0 <= 0
 inactive_no_flow_2_14_0_0: flow_2_14_0_0 - 1000 edge_2_14_0_0 <= 0
 inactive_no_flow_2_17_0_0: flow_2_17_0_0 - 1000 edge_2_17_0_0 <= 0
 inactive_no_flow_2_22_0_0: flow_2_22_0_0 - 1000 edge_2_22_0_0 <= 0
 inactive_no_flow_2_23_0_0: flow_2_23_0_0 - 1000 edge_2_23_0_0 <= 0
 inactive_no_flow_2_24_0_0: flow_2_24_0_0 - 1000 edge_2_24_0_0 <= 0
 inactive_no_flow_2_25_0_0: flow_2_25_0_0 - 1000 edge_2_25_0_0 <= 0
 inactive_no_flow_3_9_0_0: flow_3_9_0_0 - 1000 edge_3_9_0_0 <= 0
 inactive_no_flow_4_1_0_0: flow_4_1_0_0 - 1000 edge_4_1_0_0 <= 0
 inactive_no_flow_4_2_0_0: flow_4_2_0_0 - 1000 edge_4_2_0_0 <= 0
 inactive_no_flow_4_3_0_0: flow_4_3_0_0 - 1000 edge_4_3_0_0 <= 0
 inactive_no_flow_4_6_0_0: flow_4_6_0_0 - 1000 edge_4_6_0_0 <= 0
 inactive_no_flow_4_7_0_0: flow_4_7_0_0 - 1000 edge_4_7_0_0 <= 0
 inactive_no_flow_4_9_0_0: flow_4_9_0_0 - 1000 edge_4_9_0_0 <= 0
 inactive_no_flow_4_11_0_0: flow_4_11_0_0 - 1000 edge_4_11_0_0 <= 0
 inactive_no_flow_4_12_0_0: flow_4_12_0_0 - 1000 edge_4_12_0_0 <= 0
 inactive_no_flow_4_13_0_0: flow_4_13_0_0 - 1000 edge_4_13_0_0 <= 0
 inactive_no_flow_4_14_0_0: flow_4_14_0_0 - 1000 edge_4_14_0_0 <= 0
 inactive_no_flow_4_17_0_0: flow_4_17_0_0 - 1000 edge_4_17_0_0 <= 0
 inactive_no_flow_4_24_0_0: flow_4_24_0_0 - 1000 edge_4_24_0_0 <= 0
 inactive_no_flow_4_25_0_0: flow_4_25_0_0 - 1000 edge_4_25_0_0 <= 0
 inactive_no_flow_6_1_0_0: flow_6_1_0_0 - 1000 edge_6_1_0_0 <= 0
 inactive_no_flow_6_2_0_0: flow_6_2_0_0 - 1000 edge_6_2_0_0 <= 0
 inactive_no_flow_6_3_0_0: flow_6_3_0_0 - 1000 edge_6_3_0_0 <= 0
 inactive_no_flow_6_4_0_0: flow_6_4_0_0 - 1000 edge_6_4_0_0 <= 0
 inactive_no_flow_6_7_0_0: flow_6_7_0_0 - 1000 edge_6_7_0_0 <= 0
 inactive_no_flow_6_9_0_0: flow_6_9_0_0 - 1000 edge_6_9_0_0 <= 0
 inactive_no_flow_6_11_0_0: flow_6_11_0_0 - 1000 edge_6_11_0_0 <= 0
 inactive_no_flow_6_12_0_0: flow_6_12_0_0 - 1000 edge_6_12_0_0 <= 0
 inactive_no_flow_6_13_0_0: flow_6_13_0_0 - 1000 edge_6_13_0_0 <= 0
 inactive_no_flow_7_1_0_0: flow_7_1_0_0 - 1000 edge_7_1_0_0 <= 0
 inactive_no_flow_7_2_0_0: flow_7_2_0_0 - 1000 edge_7_2_0_0 <= 0
 inactive_no_flow_7_3_0_0: flow_7_3_0_0 - 1000 edge_7_3_0_0 <= 0
 inactive_no_flow_7_4_0_0: flow_7_4_0_0 - 1000 edge_7_4_0_0 <= 0
 inactive_no_flow_7_6_0_0: flow_7_6_0_0 - 1000 edge_7_6_0_0 <= 0
 inactive_no_flow_9_1_0_0: flow_9_1_0_0 - 1000 edge_9_1_0_0 <= 0
 inactive_no_flow_9_2_0_0: flow_9_2_0_0 - 1000 edge_9_2_0_0 <= 0
 inactive_no_flow_9_3_0_0: flow_9_3_0_0 - 1000 edge_9_3_0_0 <= 0
 inactive_no_flow_9_4_0_0: flow_9_4_0_0 - 1000 edge_9_4_0_0 <= 0
 inactive_no_flow_9_6_0_0: flow_9_6_0_0 - 1000 edge_9_6_0_0 <= 0
 inactive_no_flow_9_7_0_0: flow_9_7_0_0 - 1000 edge_9_7_0_0 <= 0
 inactive_no_flow_9_11_0_0: flow_9_11_0_0 - 1000 edge_9_11_0_0 <= 0
 inactive_no_flow_9_12_0_0: flow_9_12_0_0 - 1000 edge_9_12_0_0 <= 0
 inactive_no_flow_9_13_0_0: flow_9_13_0_0 - 1000 edge_9_13_0_0 <= 0
 inactive_no_flow_9_14_0_0: flow_9_14_0_0 - 1000 edge_9_14_0_0 <= 0
 inactive_no_flow_9_17_0_0: flow_9_17_0_0 - 1000 edge_9_17_0_0 <= 0
 inactive_no_flow_9_19_0_0: flow_9_19_0_0 - 1000 edge_9_19_0_0 <= 0
 inactive_no_flow_9_20_0_0: flow_9_20_0_0 - 1000 edge_9_20_0_0 <= 0
 inactive_no_flow_9_22_0_0: flow_9_22_0_0 - 1000 edge_9_22_0_0 <= 0
 inactive_no_flow_9_23_0_0: flow_9_23_0_0 - 1000 edge_9_23_0_0 <= 0
 inactive_no_flow_9_24_0_0: flow_9_24_0_0 - 1000 edge_9_24_0_0 <= 0
 inactive_no_flow_9_25_0_0: flow_9_25_0_0 - 1000 edge_9_25_0_0 <= 0
 inactive_no_flow_11_1_0_0: flow_11_1_0_0 - 1000 edge_11_1_0_0 <= 0
 inactive_no_flow_11_2_0_0: flow_11_2_0_0 - 1000 edge_11_2_0_0 <= 0
 inactive_no_flow_11_3_0_0: flow_11_3_0_0 - 1000 edge_11_3_0_0 <= 0
 inactive_no_flow_11_4_0_0: flow_11_4_0_0 - 1000 edge_11_4_0_0 <= 0
 inactive_no_flow_11_6_0_0: flow_11_6_0_0 - 1000 edge_11_6_0_0 <= 0
 inactive_no_flow_11_7_0_0: flow_11_7_0_0 - 1000 edge_11_7_0_0 <= 0
 inactive_no_flow_11_9_0_0: flow_11_9_0_0 - 1000 edge_11_9_0_0 <= 0
 inactive_no_flow_11_12_0_0: flow_11_12_0_0 - 1000 edge_11_12_0_0 <= 0
 inactive_no_flow_11_13_0_0: flow_11_13_0_0 - 1000 edge_11_13_0_0 <= 0
 inactive_no_flow_11_14_0_0: flow_11_14_0_0 - 1000 edge_11_14_0_0 <= 0
 inactive_no_flow_11_17_0_0: flow_11_17_0_0 - 1000 edge_11_17_0_0 <= 0
 inactive_no_flow_11_18_0_0: flow_11_18_0_0 - 1000 edge_11_18_0_0 <= 0
 inactive_no_flow_11_19_0_0: flow_11_19_0_0 - 1000 edge_11_19_0_0 <= 0
 inactive_no_flow_11_20_0_0: flow_11_20_0_0 - 1000 edge_11_20_0_0 <= 0
 inactive_no_flow_11_22_0_0: flow_11_22_0_0 - 1000 edge_11_22_0_0 <= 0
 inactive_no_flow_11_23_0_0: flow_11_23_0_0 - 1000 edge_11_23_0_0 <= 0
 inactive_no_flow_11_24_0_0: flow_11_24_0_0 - 1000 edge_11_24_0_0 <= 0
 inactive_no_flow_11_25_0_0: flow_11_25_0_0 - 1000 edge_11_25_0_0 <= 0
 inactive_no_flow_12_3_0_0: flow_12_3_0_0 - 1000 edge_12_3_0_0 <= 0
 inactive_no_flow_12_4_0_0: flow_12_4_0_0 - 1000 edge_12_4_0_0 <= 0
 inactive_no_flow_12_6_0_0: flow_12_6_0_0 - 1000 edge_12_6_0_0 <= 0
 inactive_no_flow_12_7_0_0: flow_12_7_0_0 - 1000 edge_12_7_0_0 <= 0
 inactive_no_flow_12_11_0_0: flow_12_11_0_0 - 1000 edge_12_11_0_0 <= 0
 inactive_no_flow_12_13_0_0: flow_12_13_0_0 - 1000 edge_12_13_0_0 <= 0
 inactive_no_flow_12_14_0_0: flow_12_14_0_0 - 1000 edge_12_14_0_0 <= 0
 inactive_no_flow_12_17_0_0: flow_12_17_0_0 - 1000 edge_12_17_0_0 <= 0
 inactive_no_flow_12_18_0_0: flow_12_18_0_0 - 1000 edge_12_18_0_0 <= 0
 inactive_no_flow_12_20_0_0: flow_12_20_0_0 - 1000 edge_12_20_0_0 <= 0
 inactive_no_flow_12_23_0_0: flow_12_23_0_0 - 1000 edge_12_23_0_0 <= 0
 inactive_no_flow_13_1_0_0: flow_13_1_0_0 - 1000 edge_13_1_0_0 <= 0
 inactive_no_flow_13_2_0_0: flow_13_2_0_0 - 1000 edge_13_2_0_0 <= 0
 inactive_no_flow_13_3_0_0: flow_13_3_0_0 - 1000 edge_13_3_0_0 <= 0
 inactive_no_flow_13_4_0_0: flow_13_4_0_0 - 1000 edge_13_4_0_0 <= 0
 inactive_no_flow_13_6_0_0: flow_13_6_0_0 - 1000 edge_13_6_0_0 <= 0
 inactive_no_flow_13_7_0_0: flow_13_7_0_0 - 1000 edge_13_7_0_0 <= 0
 inactive_no_flow_13_9_0_0: flow_13_9_0_0 - 1000 edge_13_9_0_0 <= 0
 inactive_no_flow_13_11_0_0: flow_13_11_0_0 - 1000 edge_13_11_0_0 <= 0
 inactive_no_flow_13_12_0_0: flow_13_12_0_0 - 1000 edge_13_12_0_0 <= 0
 inactive_no_flow_13_14_0_0: flow_13_14_0_0 - 1000 edge_13_14_0_0 <= 0
 inactive_no_flow_13_17_0_0: flow_13_17_0_0 - 1000 edge_13_17_0_0 <= 0
 inactive_no_flow_13_18_0_0: flow_13_18_0_0 - 1000 edge_13_18_0_0 <= 0
 inactive_no_flow_13_19_0_0: flow_13_19_0_0 - 1000 edge_13_19_0_0 <= 0
 inactive_no_flow_13_20_0_0: flow_13_20_0_0 - 1000 edge_13_20_0_0 <= 0
 inactive_no_flow_13_22_0_0: flow_13_22_0_0 - 1000 edge_13_22_0_0 <= 0
 inactive_no_flow_13_23_0_0: flow_13_23_0_0 - 1000 edge_13_23_0_0 <= 0
 inactive_no_flow_13_24_0_0: flow_13_24_0_0 - 1000 edge_13_24_0_0 <= 0
 inactive_no_flow_13_25_0_0: flow_13_25_0_0 - 1000 edge_13_25_0_0 <= 0
 inactive_no_flow_14_1_0_0: flow_14_1_0_0 - 1000 edge_14_1_0_0 <= 0
 inactive_no_flow_14_9_0_0: flow_14_9_0_0 - 1000 edge_14_9_0_0 <= 0
 inactive_no_flow_14_11_0_0: flow_14_11_0_0 - 1000 edge_14_11_0_0 <= 0
 inactive_no_flow_14_12_0_0: flow_14_12_0_0 - 1000 edge_14_12_0_0 <= 0
 inactive_no_flow_14_13_0_0: flow_14_13_0_0 - 1000 edge_14_13_0_0 <= 0
 inactive_no_flow_14_17_0_0: flow_14_17_0_0 - 1000 edge_14_17_0_0 <= 0
 inactive_no_flow_14_18_0_0: flow_14_18_0_0 - 1000 edge_14_18_0_0 <= 0
 inactive_no_flow_14_19_0_0: flow_14_19_0_0 - 1000 edge_14_19_0_0 <= 0
 inactive_no_flow_14_20_0_0: flow_14_20_0_0 - 1000 edge_14_20_0_0 <= 0
 inactive_no_flow_14_22_0_0: flow_14_22_0_0 - 1000 edge_14_22_0_0 <= 0
 inactive_no_flow_14_23_0_0: flow_14_23_0_0 - 1000 edge_14_23_0_0 <= 0
 inactive_no_flow_14_24_0_0: flow_14_24_0_0 - 1000 edge_14_24_0_0 <= 0
 inactive_no_flow_14_25_0_0: flow_14_25_0_0 - 1000 edge_14_25_0_0 <= 0
 inactive_no_flow_17_14_0_0: flow_17_14_0_0 - 1000 edge_17_14_0_0 <= 0
 inactive_no_flow_17_18_0_0: flow_17_18_0_0 - 1000 edge_17_18_0_0 <= 0
 inactive_no_flow_17_19_0_0: flow_17_19_0_0 - 1000 edge_17_19_0_0 <= 0
 inactive_no_flow_18_17_0_0: flow_18_17_0_0 - 1000 edge_18_17_0_0 <= 0
 inactive_no_flow_18_19_0_0: flow_18_19_0_0 - 1000 edge_18_19_0_0 <= 0
 inactive_no_flow_18_20_0_0: flow_18_20_0_0 - 1000 edge_18_20_0_0 <= 0
 inactive_no_flow_18_22_0_0: flow_18_22_0_0 - 1000 edge_18_22_0_0 <= 0
 inactive_no_flow_18_23_0_0: flow_18_23_0_0 - 1000 edge_18_23_0_0 <= 0
 inactive_no_flow_18_24_0_0: flow_18_24_0_0 - 1000 edge_18_24_0_0 <= 0
 inactive_no_flow_18_25_0_0: flow_18_25_0_0 - 1000 edge_18_25_0_0 <= 0
 inactive_no_flow_19_18_0_0: flow_19_18_0_0 - 1000 edge_19_18_0_0 <= 0
 inactive_no_flow_19_20_0_0: flow_19_20_0_0 - 1000 edge_19_20_0_0 <= 0
 inactive_no_flow_19_24_0_0: flow_19_24_0_0 - 1000 edge_19_24_0_0 <= 0
 inactive_no_flow_20_17_0_0: flow_20_17_0_0 - 1000 edge_20_17_0_0 <= 0
 inactive_no_flow_20_18_0_0: flow_20_18_0_0 - 1000 edge_20_18_0_0 <= 0
 inactive_no_flow_20_19_0_0: flow_20_19_0_0 - 1000 edge_20_19_0_0 <= 0
 inactive_no_flow_20_22_0_0: flow_20_22_0_0 - 1000 edge_20_22_0_0 <= 0
 inactive_no_flow_20_23_0_0: flow_20_23_0_0 - 1000 edge_20_23_0_0 <= 0
 inactive_no_flow_20_25_0_0: flow_20_25_0_0 - 1000 edge_20_25_0_0 <= 0
 inactive_no_flow_22_18_0_0: flow_22_18_0_0 - 1000 edge_22_18_0_0 <= 0
 inactive_no_flow_22_19_0_0: flow_22_19_0_0 - 1000 edge_22_19_0_0 <= 0
 inactive_no_flow_22_20_0_0: flow_22_20_0_0 - 1000 edge_22_20_0_0 <= 0
 inactive_no_flow_22_23_0_0: flow_22_23_0_0 - 1000 edge_22_23_0_0 <= 0
 inactive_no_flow_22_25_0_0: flow_22_25_0_0 - 1000 edge_22_25_0_0 <= 0
 inactive_no_flow_23_19_0_0: flow_23_19_0_0 - 1000 edge_23_19_0_0 <= 0
 inactive_no_flow_23_20_0_0: flow_23_20_0_0 - 1000 edge_23_20_0_0 <= 0
 inactive_no_flow_23_22_0_0: flow_23_22_0_0 - 1000 edge_23_22_0_0 <= 0
 inactive_no_flow_23_24_0_0: flow_23_24_0_0 - 1000 edge_23_24_0_0 <= 0
 inactive_no_flow_24_2_0_0: flow_24_2_0_0 - 1000 edge_24_2_0_0 <= 0
 inactive_no_flow_24_9_0_0: flow_24_9_0_0 - 1000 edge_24_9_0_0 <= 0
 inactive_no_flow_24_11_0_0: flow_24_11_0_0 - 1000 edge_24_11_0_0 <= 0
 inactive_no_flow_24_12_0_0: flow_24_12_0_0 - 1000 edge_24_12_0_0 <= 0
 inactive_no_flow_24_13_0_0: flow_24_13_0_0 - 1000 edge_24_13_0_0 <= 0
 inactive_no_flow_24_14_0_0: flow_24_14_0_0 - 1000 edge_24_14_0_0 <= 0
 inactive_no_flow_24_17_0_0: flow_24_17_0_0 - 1000 edge_24_17_0_0 <= 0
 inactive_no_flow_24_18_0_0: flow_24_18_0_0 - 1000 edge_24_18_0_0 <= 0
 inactive_no_flow_24_19_0_0: flow_24_19_0_0 - 1000 edge_24_19_0_0 <= 0
 inactive_no_flow_24_20_0_0: flow_24_20_0_0 - 1000 edge_24_20_0_0 <= 0
 inactive_no_flow_24_22_0_0: flow_24_22_0_0 - 1000 edge_24_22_0_0 <= 0
 inactive_no_flow_24_23_0_0: flow_24_23_0_0 - 1000 edge_24_23_0_0 <= 0
 inactive_no_flow_24_25_0_0: flow_24_25_0_0 - 1000 edge_24_25_0_0 <= 0
 inactive_no_flow_25_22_0_0: flow_25_22_0_0 - 1000 edge_25_22_0_0 <= 0
Bounds
Binaries
 edge_0_1_0_0 edge_0_2_0_0 edge_0_3_0_0 edge_0_4_0_0 edge_0_6_0_0
 edge_0_7_0_0 edge_0_9_0_0 edge_0_11_0_0 edge_0_13_0_0 edge_0_14_0_0
 edge_0_24_0_0 edge_1_2_0_0 edge_1_3_0_0 edge_1_4_0_0 edge_1_6_0_0
 edge_1_7_0_0 edge_1_9_0_0 edge_1_11_0_0 edge_2_1_0_0 edge_2_3_0_0
 edge_2_4_0_0 edge_2_6_0_0 edge_2_7_0_0 edge_2_9_0_0 edge_2_11_0_0
 edge_2_12_0_0 edge_2_13_0_0 edge_2_14_0_0 edge_2_17_0_0 edge_2_22_0_0
 edge_2_23_0_0 edge_2_24_0_0 edge_2_25_0_0 edge_3_9_0_0 edge_4_1_0_0
 edge_4_2_0_0 edge_4_3_0_0 edge_4_6_0_0 edge_4_7_0_0 edge_4_9_0_0
 edge_4_11_0_0 edge_4_12_0_0 edge_4_13_0_0 edge_4_14_0_0 edge_4_17_0_0
 edge_4_24_0_0 edge_4_25_0_0 edge_6_1_0_0 edge_6_2_0_0 edge_6_3_0_0
 edge_6_4_0_0 edge_6_7_0_0 edge_6_9_0_0 edge_6_11_0_0 edge_6_12_0_0
 edge_6_13_0_0 edge_7_1_0_0 edge_7_2_0_0 edge_7_3_0_0 edge_7_4_0_0
 edge_7_6_0_0 edge_9_1_0_0 edge_9_2_0_0 edge_9_3_0_0 edge_9_4_0_0
 edge_9_6_0_0 edge_9_7_0_0 edge_9_11_0_0 edge_9_12_0_0 edge_9_13_0_0
 edge_9_14_0_0 edge_9_17_0_0 edge_9_19_0_0 edge_9_20_0_0 edge_9_22_0_0
 edge_9_23_0_0 edge_9_24_0_0 edge_9_25_0_0 edge_11_1_0_0 edge_11_2_0_0
 edge_11_3_0_0 edge_11_4_0_0 edge_11_6_0_0 edge_11_7_0_0 edge_11_9_0_0
 edge_11_12_0_0 edge_11_13_0_0 edge_11_14_0_0 edge_11_17_0_0 edge_11_18_0_0
 edge_11_19_0_0 edge_11_20_0_0 edge_11_22_0_0 edge_11_23_0_0 edge_11_24_0_0
 edge_11_25_0_0 edge_12_3_0_0 edge_12_4_0_0 edge_12_6_0_0 edge_12_7_0_0
 edge_12_11_0_0 edge_12_13_0_0 edge_12_14_0_0 edge_12_17_0_0 edge_12_18_0_0
 edge_12_20_0_0 edge_12_23_0_0 edge_13_1_0_0 edge_13_2_0_0 edge_13_3_0_0
 edge_13_4_0_0 edge_13_6_0_0 edge_13_7_0_0 edge_13_9_0_0 edge_13_11_0_0
 edge_13_12_0_0 edge_13_14_0_0 edge_13_17_0_0 edge_13_18_0_0 edge_13_19_0_0
 edge_13_20_0_0 edge_13_22_0_0 edge_13_23_0_0 edge_13_24_0_0 edge_13_25_0_0
 edge_14_1_0_0 edge_14_9_0_0 edge_14_11_0_0 edge_14_12_0_0 edge_14_13_0_0
 edge_14_17_0_0 edge_14_18_0_0 edge_14_19_0_0 edge_14_20_0_0 edge_14_22_0_0
 edge_14_23_0_0 edge_14_24_0_0 edge_14_25_0_0 edge_17_14_0_0 edge_17_18_0_0
 edge_17_19_0_0 edge_18_17_0_0 edge_18_19_0_0 edge_18_20_0_0 edge_18_22_0_0
 edge_18_23_0_0 edge_18_24_0_0 edge_18_25_0_0 edge_19_18_0_0 edge_19_20_0_0
 edge_19_24_0_0 edge_20_17_0_0 edge_20_18_0_0 edge_20_19_0_0 edge_20_22_0_0
 edge_20_23_0_0 edge_20_25_0_0 edge_22_18_0_0 edge_22_19_0_0 edge_22_20_0_0
 edge_22_23_0_0 edge_22_25_0_0 edge_23_19_0_0 edge_23_20_0_0 edge_23_22_0_0
 edge_23_24_0_0 edge_24_2_0_0 edge_24_9_0_0 edge_24_11_0_0 edge_24_12_0_0
 edge_24_13_0_0 edge_24_14_0_0 edge_24_17_0_0 edge_24_18_0_0 edge_24_19_0_0
 edge_24_20_0_0 edge_24_22_0_0 edge_24_23_0_0 edge_24_25_0_0 edge_25_22_0_0
End
